\ Generated by MPModelProtoExporter
\   Name             : SCIP
\   Format           : Free
\   Constraints      : 45
\   Variables        : 465
\     Binary         : 465
\     Integer        : 0
\     Continuous     : 0
Minimize
 Obj: +64 x[0,0] +98 x[1,0] +2 x[2,0] +76 x[3,0] +11 x[4,0] +37 x[5,0] +68 x[6,0] +19 x[7,0] +15 x[8,0] +71 x[9,0] +56 x[10,0] +5 x[11,0] +71 x[12,0] +89 x[13,0] +33 x[14,0] +40 x[15,0] +19 x[16,0] +11 x[17,0] +5 x[18,0] +49 x[19,0] +77 x[20,0] +90 x[21,0] +20 x[22,0] +89 x[23,0] +50 x[24,0] +39 x[25,0] +73 x[26,0] +55 x[27,0] +5 x[28,0] +88 x[29,0] +41 x[0,1] +42 x[1,1] +31 x[2,1] +34 x[3,1] +6 x[4,1] +38 x[5,1] +51 x[6,1] +96 x[7,1] +3 x[8,1] +68 x[9,1] +20 x[10,1] +96 x[11,1] +46 x[12,1] +97 x[13,1] +79 x[14,1] +55 x[15,1] +38 x[16,1] +72 x[17,1] +25 x[18,1] +39 x[19,1] +7 x[20,1] +92 x[21,1] +41 x[22,1] +3 x[23,1] +27 x[24,1] +73 x[25,1] +32 x[26,1] +96 x[27,1] +76 x[28,1] +5 x[29,1] +32 x[0,2] +33 x[1,2] +93 x[2,2] +49 x[3,2] +40 x[4,2] +39 x[5,2] +55 x[6,2] +5 x[7,2] +19 x[8,2] +73 x[9,2] +32 x[10,2] +80 x[11,2] +87 x[12,2] +55 x[13,2] +25 x[14,2] +22 x[15,2] +43 x[16,2] +92 x[17,2] +57 x[18,2] +84 x[19,2] +60 x[20,2] +18 x[21,2] +4 x[22,2] +1 x[23,2] +83 x[24,2] +30 x[25,2] +51 x[26,2] +73 x[27,2] +70 x[28,2] +35 x[29,2] +51 x[0,3] +61 x[1,3] +82 x[2,3] +74 x[3,3] +46 x[4,3] +41 x[5,3] +29 x[6,3] +69 x[7,3] +93 x[8,3] +50 x[9,3] +93 x[10,3] +71 x[11,3] +59 x[12,3] +68 x[13,3] +51 x[14,3] +13 x[15,3] +7 x[16,3] +84 x[17,3] +42 x[18,3] +95 x[19,3] +81 x[20,3] +96 x[21,3] +1 x[22,3] +1 x[23,3] +52 x[24,3] +11 x[25,3] +72 x[26,3] +68 x[27,3] +66 x[28,3] +27 x[29,3] +76 x[0,4] +80 x[1,4] +70 x[2,4] +50 x[3,4] +4 x[4,4] +33 x[5,4] +37 x[6,4] +99 x[7,4] +53 x[8,4] +65 x[9,4] +77 x[10,4] +65 x[11,4] +96 x[12,4] +33 x[13,4] +27 x[14,4] +50 x[15,4] +25 x[16,4] +82 x[17,4] +51 x[18,4] +44 x[19,4] +47 x[20,4] +34 x[21,4] +86 x[22,4] +1 x[23,4] +19 x[24,4] +36 x[25,4] +41 x[26,4] +28 x[27,4] +42 x[28,4] +93 x[29,4] +26 x[0,5] +62 x[1,5] +1 x[2,5] +28 x[3,5] +4 x[4,5] +77 x[5,5] +32 x[6,5] +77 x[7,5] +79 x[8,5] +67 x[9,5] +23 x[10,5] +31 x[11,5] +78 x[12,5] +89 x[13,5] +44 x[14,5] +62 x[15,5] +2 x[16,5] +53 x[17,5] +46 x[18,5] +81 x[19,5] +20 x[20,5] +37 x[21,5] +77 x[22,5] +45 x[23,5] +24 x[24,5] +60 x[25,5] +52 x[26,5] +3 x[27,5] +12 x[28,5] +39 x[29,5] +31 x[0,6] +91 x[1,6] +99 x[2,6] +4 x[3,6] +60 x[5,6] +86 x[6,6] +69 x[7,6] +26 x[8,6] +49 x[9,6] +75 x[10,6] +11 x[11,6] +55 x[12,6] +51 x[13,6] +19 x[14,6] +92 x[15,6] +55 x[16,6] +36 x[17,6] +34 x[18,6] +48 x[19,6] +34 x[20,6] +98 x[21,6] +64 x[22,6] +56 x[23,6] +42 x[24,6] +85 x[25,6] +15 x[26,6] +50 x[27,6] +71 x[28,6] +24 x[29,6] +25 x[0,7] +91 x[1,7] +97 x[2,7] +93 x[3,7] +12 x[4,7] +19 x[5,7] +32 x[6,7] +39 x[7,7] +69 x[8,7] +34 x[9,7] +88 x[10,7] +66 x[11,7] +9 x[12,7] +72 x[13,7] +72 x[14,7] +61 x[15,7] +27 x[16,7] +37 x[17,7] +9 x[18,7] +70 x[19,7] +76 x[20,7] +69 x[21,7] +57 x[22,7] +25 x[23,7] +20 x[24,7] +56 x[25,7] +52 x[26,7] +76 x[27,7] +21 x[28,7] +30 x[29,7] +79 x[0,8] +59 x[1,8] +6 x[2,8] +43 x[3,8] +51 x[4,8] +77 x[5,8] +49 x[6,8] +69 x[7,8] +81 x[8,8] +49 x[9,8] +5 x[10,8] +13 x[11,8] +71 x[12,8] +32 x[13,8] +55 x[14,8] +48 x[15,8] +18 x[16,8] +44 x[17,8] +63 x[18,8] +42 x[19,8] +46 x[20,8] +51 x[21,8] +10 x[22,8] +70 x[23,8] +35 x[24,8] +18 x[25,8] +56 x[26,8] +90 x[27,8] +63 x[28,8] +97 x[29,8] +33 x[0,9] +96 x[1,9] +23 x[2,9] +9 x[3,9] +83 x[4,9] +74 x[6,9] +59 x[7,9] +5 x[8,9] +8 x[9,9] +11 x[10,9] +67 x[11,9] +26 x[12,9] +82 x[13,9] +16 x[14,9] +97 x[15,9] +45 x[16,9] +32 x[17,9] +79 x[18,9] +73 x[19,9] +71 x[20,9] +47 x[21,9] +24 x[22,9] +13 x[23,9] +47 x[24,9] +40 x[25,9] +90 x[26,9] +63 x[27,9] +2 x[28,9] +37 x[29,9] +45 x[0,10] +3 x[1,10] +24 x[2,10] +39 x[3,10] +57 x[4,10] +70 x[5,10] +7 x[6,10] +90 x[7,10] +86 x[8,10] +97 x[9,10] +88 x[10,10] +38 x[11,10] +39 x[12,10] +55 x[13,10] +71 x[14,10] +18 x[15,10] +76 x[16,10] +34 x[17,10] +14 x[18,10] +99 x[19,10] +64 x[20,10] +85 x[21,10] +81 x[22,10] +67 x[23,10] +39 x[24,10] +84 x[25,10] +42 x[26,10] +62 x[27,10] +23 x[28,10] +74 x[29,10] +99 x[0,11] +1 x[1,11] +3 x[2,11] +98 x[3,11] +47 x[4,11] +1 x[5,11] +99 x[6,11] +98 x[7,11] +25 x[8,11] +12 x[9,11] +73 x[10,11] +81 x[11,11] +86 x[12,11] +1 x[13,11] +99 x[14,11] +10 x[15,11] +7 x[16,11] +25 x[17,11] +33 x[18,11] +51 x[19,11] +98 x[20,11] +63 x[21,11] +72 x[22,11] +95 x[23,11] +67 x[24,11] +20 x[25,11] +97 x[26,11] +16 x[27,11] +40 x[28,11] +71 x[29,11] +30 x[0,12] +59 x[1,12] +97 x[2,12] +67 x[3,12] +72 x[4,12] +1 x[5,12] +58 x[6,12] +53 x[7,12] +73 x[8,12] +79 x[9,12] +24 x[10,12] +72 x[11,12] +58 x[12,12] +77 x[13,12] +61 x[14,12] +72 x[15,12] +86 x[16,12] +58 x[17,12] +5 x[18,12] +49 x[19,12] +34 x[20,12] +90 x[21,12] +87 x[22,12] +65 x[23,12] +94 x[24,12] +22 x[25,12] +26 x[26,12] +77 x[27,12] +25 x[28,12] +2 x[29,12] +57 x[0,13] +29 x[1,13] +67 x[2,13] +5 x[3,13] +7 x[4,13] +38 x[5,13] +65 x[6,13] +75 x[7,13] +44 x[8,13] +30 x[9,13] +51 x[10,13] +87 x[11,13] +94 x[12,13] +15 x[13,13] +95 x[14,13] +27 x[15,13] +48 x[16,13] +23 x[17,13] +45 x[18,13] +66 x[19,13] +29 x[20,13] +71 x[21,13] +4 x[22,13] +20 x[23,13] +81 x[24,13] +58 x[25,13] +31 x[26,13] +38 x[27,13] +24 x[28,13] +44 x[29,13] +33 x[0,14] +12 x[1,14] +17 x[2,14] +30 x[3,14] +28 x[4,14] +57 x[5,14] +45 x[6,14] +2 x[7,14] +1 x[8,14] +60 x[9,14] +81 x[10,14] +31 x[11,14] +14 x[12,14] +36 x[13,14] +99 x[14,14] +77 x[15,14] +72 x[16,14] +3 x[18,14] +37 x[19,14] +23 x[20,14] +93 x[21,14] +8 x[22,14] +74 x[23,14] +77 x[24,14] +71 x[25,14] +64 x[26,14] +90 x[27,14] +15 x[28,14] +96 x[29,14] +305 y[0] +601 y[1] +2031 y[2] +681 y[3] +360 y[4] +2241 y[5] +445 y[6] +665 y[7] +2832 y[8] +678 y[9] +2497 y[10] +3535 y[11] +3486 y[12] +899 y[13] +1679 y[14] 
Subject to
 auto_c_000000000: +1 x[0,0] +1 x[0,1] +1 x[0,2] +1 x[0,3] +1 x[0,4] +1 x[0,5] +1 x[0,6] +1 x[0,7] +1 x[0,8] +1 x[0,9] +1 x[0,10] +1 x[0,11] +1 x[0,12] +1 x[0,13] +1 x[0,14]  = 1
 auto_c_000000001: +1 x[1,0] +1 x[1,1] +1 x[1,2] +1 x[1,3] +1 x[1,4] +1 x[1,5] +1 x[1,6] +1 x[1,7] +1 x[1,8] +1 x[1,9] +1 x[1,10] +1 x[1,11] +1 x[1,12] +1 x[1,13] +1 x[1,14]  = 1
 auto_c_000000002: +1 x[2,0] +1 x[2,1] +1 x[2,2] +1 x[2,3] +1 x[2,4] +1 x[2,5] +1 x[2,6] +1 x[2,7] +1 x[2,8] +1 x[2,9] +1 x[2,10] +1 x[2,11] +1 x[2,12] +1 x[2,13] +1 x[2,14]  = 1
 auto_c_000000003: +1 x[3,0] +1 x[3,1] +1 x[3,2] +1 x[3,3] +1 x[3,4] +1 x[3,5] +1 x[3,6] +1 x[3,7] +1 x[3,8] +1 x[3,9] +1 x[3,10] +1 x[3,11] +1 x[3,12] +1 x[3,13] +1 x[3,14]  = 1
 auto_c_000000004: +1 x[4,0] +1 x[4,1] +1 x[4,2] +1 x[4,3] +1 x[4,4] +1 x[4,5] +1 x[4,6] +1 x[4,7] +1 x[4,8] +1 x[4,9] +1 x[4,10] +1 x[4,11] +1 x[4,12] +1 x[4,13] +1 x[4,14]  = 1
 auto_c_000000005: +1 x[5,0] +1 x[5,1] +1 x[5,2] +1 x[5,3] +1 x[5,4] +1 x[5,5] +1 x[5,6] +1 x[5,7] +1 x[5,8] +1 x[5,9] +1 x[5,10] +1 x[5,11] +1 x[5,12] +1 x[5,13] +1 x[5,14]  = 1
 auto_c_000000006: +1 x[6,0] +1 x[6,1] +1 x[6,2] +1 x[6,3] +1 x[6,4] +1 x[6,5] +1 x[6,6] +1 x[6,7] +1 x[6,8] +1 x[6,9] +1 x[6,10] +1 x[6,11] +1 x[6,12] +1 x[6,13] +1 x[6,14]  = 1
 auto_c_000000007: +1 x[7,0] +1 x[7,1] +1 x[7,2] +1 x[7,3] +1 x[7,4] +1 x[7,5] +1 x[7,6] +1 x[7,7] +1 x[7,8] +1 x[7,9] +1 x[7,10] +1 x[7,11] +1 x[7,12] +1 x[7,13] +1 x[7,14]  = 1
 auto_c_000000008: +1 x[8,0] +1 x[8,1] +1 x[8,2] +1 x[8,3] +1 x[8,4] +1 x[8,5] +1 x[8,6] +1 x[8,7] +1 x[8,8] +1 x[8,9] +1 x[8,10] +1 x[8,11] +1 x[8,12] +1 x[8,13] +1 x[8,14]  = 1
 auto_c_000000009: +1 x[9,0] +1 x[9,1] +1 x[9,2] +1 x[9,3] +1 x[9,4] +1 x[9,5] +1 x[9,6] +1 x[9,7] +1 x[9,8] +1 x[9,9] +1 x[9,10] +1 x[9,11] +1 x[9,12] +1 x[9,13] +1 x[9,14]  = 1
 auto_c_000000010: +1 x[10,0] +1 x[10,1] +1 x[10,2] +1 x[10,3] +1 x[10,4] +1 x[10,5] +1 x[10,6] +1 x[10,7] +1 x[10,8] +1 x[10,9] +1 x[10,10] +1 x[10,11] +1 x[10,12] +1 x[10,13] +1 x[10,14]  = 1
 auto_c_000000011: +1 x[11,0] +1 x[11,1] +1 x[11,2] +1 x[11,3] +1 x[11,4] +1 x[11,5] +1 x[11,6] +1 x[11,7] +1 x[11,8] +1 x[11,9] +1 x[11,10] +1 x[11,11] +1 x[11,12] +1 x[11,13] +1 x[11,14]  = 1
 auto_c_000000012: +1 x[12,0] +1 x[12,1] +1 x[12,2] +1 x[12,3] +1 x[12,4] +1 x[12,5] +1 x[12,6] +1 x[12,7] +1 x[12,8] +1 x[12,9] +1 x[12,10] +1 x[12,11] +1 x[12,12] +1 x[12,13] +1 x[12,14]  = 1
 auto_c_000000013: +1 x[13,0] +1 x[13,1] +1 x[13,2] +1 x[13,3] +1 x[13,4] +1 x[13,5] +1 x[13,6] +1 x[13,7] +1 x[13,8] +1 x[13,9] +1 x[13,10] +1 x[13,11] +1 x[13,12] +1 x[13,13] +1 x[13,14]  = 1
 auto_c_000000014: +1 x[14,0] +1 x[14,1] +1 x[14,2] +1 x[14,3] +1 x[14,4] +1 x[14,5] +1 x[14,6] +1 x[14,7] +1 x[14,8] +1 x[14,9] +1 x[14,10] +1 x[14,11] +1 x[14,12] +1 x[14,13] +1 x[14,14]  = 1
 auto_c_000000015: +1 x[15,0] +1 x[15,1] +1 x[15,2] +1 x[15,3] +1 x[15,4] +1 x[15,5] +1 x[15,6] +1 x[15,7] +1 x[15,8] +1 x[15,9] +1 x[15,10] +1 x[15,11] +1 x[15,12] +1 x[15,13] +1 x[15,14]  = 1
 auto_c_000000016: +1 x[16,0] +1 x[16,1] +1 x[16,2] +1 x[16,3] +1 x[16,4] +1 x[16,5] +1 x[16,6] +1 x[16,7] +1 x[16,8] +1 x[16,9] +1 x[16,10] +1 x[16,11] +1 x[16,12] +1 x[16,13] +1 x[16,14]  = 1
 auto_c_000000017: +1 x[17,0] +1 x[17,1] +1 x[17,2] +1 x[17,3] +1 x[17,4] +1 x[17,5] +1 x[17,6] +1 x[17,7] +1 x[17,8] +1 x[17,9] +1 x[17,10] +1 x[17,11] +1 x[17,12] +1 x[17,13] +1 x[17,14]  = 1
 auto_c_000000018: +1 x[18,0] +1 x[18,1] +1 x[18,2] +1 x[18,3] +1 x[18,4] +1 x[18,5] +1 x[18,6] +1 x[18,7] +1 x[18,8] +1 x[18,9] +1 x[18,10] +1 x[18,11] +1 x[18,12] +1 x[18,13] +1 x[18,14]  = 1
 auto_c_000000019: +1 x[19,0] +1 x[19,1] +1 x[19,2] +1 x[19,3] +1 x[19,4] +1 x[19,5] +1 x[19,6] +1 x[19,7] +1 x[19,8] +1 x[19,9] +1 x[19,10] +1 x[19,11] +1 x[19,12] +1 x[19,13] +1 x[19,14]  = 1
 auto_c_000000020: +1 x[20,0] +1 x[20,1] +1 x[20,2] +1 x[20,3] +1 x[20,4] +1 x[20,5] +1 x[20,6] +1 x[20,7] +1 x[20,8] +1 x[20,9] +1 x[20,10] +1 x[20,11] +1 x[20,12] +1 x[20,13] +1 x[20,14]  = 1
 auto_c_000000021: +1 x[21,0] +1 x[21,1] +1 x[21,2] +1 x[21,3] +1 x[21,4] +1 x[21,5] +1 x[21,6] +1 x[21,7] +1 x[21,8] +1 x[21,9] +1 x[21,10] +1 x[21,11] +1 x[21,12] +1 x[21,13] +1 x[21,14]  = 1
 auto_c_000000022: +1 x[22,0] +1 x[22,1] +1 x[22,2] +1 x[22,3] +1 x[22,4] +1 x[22,5] +1 x[22,6] +1 x[22,7] +1 x[22,8] +1 x[22,9] +1 x[22,10] +1 x[22,11] +1 x[22,12] +1 x[22,13] +1 x[22,14]  = 1
 auto_c_000000023: +1 x[23,0] +1 x[23,1] +1 x[23,2] +1 x[23,3] +1 x[23,4] +1 x[23,5] +1 x[23,6] +1 x[23,7] +1 x[23,8] +1 x[23,9] +1 x[23,10] +1 x[23,11] +1 x[23,12] +1 x[23,13] +1 x[23,14]  = 1
 auto_c_000000024: +1 x[24,0] +1 x[24,1] +1 x[24,2] +1 x[24,3] +1 x[24,4] +1 x[24,5] +1 x[24,6] +1 x[24,7] +1 x[24,8] +1 x[24,9] +1 x[24,10] +1 x[24,11] +1 x[24,12] +1 x[24,13] +1 x[24,14]  = 1
 auto_c_000000025: +1 x[25,0] +1 x[25,1] +1 x[25,2] +1 x[25,3] +1 x[25,4] +1 x[25,5] +1 x[25,6] +1 x[25,7] +1 x[25,8] +1 x[25,9] +1 x[25,10] +1 x[25,11] +1 x[25,12] +1 x[25,13] +1 x[25,14]  = 1
 auto_c_000000026: +1 x[26,0] +1 x[26,1] +1 x[26,2] +1 x[26,3] +1 x[26,4] +1 x[26,5] +1 x[26,6] +1 x[26,7] +1 x[26,8] +1 x[26,9] +1 x[26,10] +1 x[26,11] +1 x[26,12] +1 x[26,13] +1 x[26,14]  = 1
 auto_c_000000027: +1 x[27,0] +1 x[27,1] +1 x[27,2] +1 x[27,3] +1 x[27,4] +1 x[27,5] +1 x[27,6] +1 x[27,7] +1 x[27,8] +1 x[27,9] +1 x[27,10] +1 x[27,11] +1 x[27,12] +1 x[27,13] +1 x[27,14]  = 1
 auto_c_000000028: +1 x[28,0] +1 x[28,1] +1 x[28,2] +1 x[28,3] +1 x[28,4] +1 x[28,5] +1 x[28,6] +1 x[28,7] +1 x[28,8] +1 x[28,9] +1 x[28,10] +1 x[28,11] +1 x[28,12] +1 x[28,13] +1 x[28,14]  = 1
 auto_c_000000029: +1 x[29,0] +1 x[29,1] +1 x[29,2] +1 x[29,3] +1 x[29,4] +1 x[29,5] +1 x[29,6] +1 x[29,7] +1 x[29,8] +1 x[29,9] +1 x[29,10] +1 x[29,11] +1 x[29,12] +1 x[29,13] +1 x[29,14]  = 1
 auto_c_000000030: +9 x[0,0] +27 x[1,0] +7 x[2,0] +4 x[3,0] +11 x[4,0] +15 x[5,0] +16 x[6,0] +16 x[7,0] +9 x[8,0] +32 x[9,0] +34 x[10,0] +1 x[11,0] +7 x[12,0] +22 x[13,0] +32 x[14,0] +25 x[15,0] +38 x[16,0] +9 x[17,0] +15 x[18,0] +17 x[19,0] +29 x[20,0] +3 x[21,0] +9 x[22,0] +33 x[23,0] +4 x[24,0] +15 x[25,0] +32 x[26,0] +24 x[27,0] +33 x[28,0] +14 x[29,0] -23 y[0]  <= 0
 auto_c_000000031: +9 x[0,1] +27 x[1,1] +7 x[2,1] +4 x[3,1] +11 x[4,1] +15 x[5,1] +16 x[6,1] +16 x[7,1] +9 x[8,1] +32 x[9,1] +34 x[10,1] +1 x[11,1] +7 x[12,1] +22 x[13,1] +32 x[14,1] +25 x[15,1] +38 x[16,1] +9 x[17,1] +15 x[18,1] +17 x[19,1] +29 x[20,1] +3 x[21,1] +9 x[22,1] +33 x[23,1] +4 x[24,1] +15 x[25,1] +32 x[26,1] +24 x[27,1] +33 x[28,1] +14 x[29,1] -74 y[1]  <= 0
 auto_c_000000032: +9 x[0,2] +27 x[1,2] +7 x[2,2] +4 x[3,2] +11 x[4,2] +15 x[5,2] +16 x[6,2] +16 x[7,2] +9 x[8,2] +32 x[9,2] +34 x[10,2] +1 x[11,2] +7 x[12,2] +22 x[13,2] +32 x[14,2] +25 x[15,2] +38 x[16,2] +9 x[17,2] +15 x[18,2] +17 x[19,2] +29 x[20,2] +3 x[21,2] +9 x[22,2] +33 x[23,2] +4 x[24,2] +15 x[25,2] +32 x[26,2] +24 x[27,2] +33 x[28,2] +14 x[29,2] -125 y[2]  <= 0
 auto_c_000000033: +9 x[0,3] +27 x[1,3] +7 x[2,3] +4 x[3,3] +11 x[4,3] +15 x[5,3] +16 x[6,3] +16 x[7,3] +9 x[8,3] +32 x[9,3] +34 x[10,3] +1 x[11,3] +7 x[12,3] +22 x[13,3] +32 x[14,3] +25 x[15,3] +38 x[16,3] +9 x[17,3] +15 x[18,3] +17 x[19,3] +29 x[20,3] +3 x[21,3] +9 x[22,3] +33 x[23,3] +4 x[24,3] +15 x[25,3] +32 x[26,3] +24 x[27,3] +33 x[28,3] +14 x[29,3] -42 y[3]  <= 0
 auto_c_000000034: +9 x[0,4] +27 x[1,4] +7 x[2,4] +4 x[3,4] +11 x[4,4] +15 x[5,4] +16 x[6,4] +16 x[7,4] +9 x[8,4] +32 x[9,4] +34 x[10,4] +1 x[11,4] +7 x[12,4] +22 x[13,4] +32 x[14,4] +25 x[15,4] +38 x[16,4] +9 x[17,4] +15 x[18,4] +17 x[19,4] +29 x[20,4] +3 x[21,4] +9 x[22,4] +33 x[23,4] +4 x[24,4] +15 x[25,4] +32 x[26,4] +24 x[27,4] +33 x[28,4] +14 x[29,4] -32 y[4]  <= 0
 auto_c_000000035: +9 x[0,5] +27 x[1,5] +7 x[2,5] +4 x[3,5] +11 x[4,5] +15 x[5,5] +16 x[6,5] +16 x[7,5] +9 x[8,5] +32 x[9,5] +34 x[10,5] +1 x[11,5] +7 x[12,5] +22 x[13,5] +32 x[14,5] +25 x[15,5] +38 x[16,5] +9 x[17,5] +15 x[18,5] +17 x[19,5] +29 x[20,5] +3 x[21,5] +9 x[22,5] +33 x[23,5] +4 x[24,5] +15 x[25,5] +32 x[26,5] +24 x[27,5] +33 x[28,5] +14 x[29,5] -104 y[5]  <= 0
 auto_c_000000036: +9 x[0,6] +27 x[1,6] +7 x[2,6] +4 x[3,6] +11 x[4,6] +15 x[5,6] +16 x[6,6] +16 x[7,6] +9 x[8,6] +32 x[9,6] +34 x[10,6] +1 x[11,6] +7 x[12,6] +22 x[13,6] +32 x[14,6] +25 x[15,6] +38 x[16,6] +9 x[17,6] +15 x[18,6] +17 x[19,6] +29 x[20,6] +3 x[21,6] +9 x[22,6] +33 x[23,6] +4 x[24,6] +15 x[25,6] +32 x[26,6] +24 x[27,6] +33 x[28,6] +14 x[29,6] -55 y[6]  <= 0
 auto_c_000000037: +9 x[0,7] +27 x[1,7] +7 x[2,7] +4 x[3,7] +11 x[4,7] +15 x[5,7] +16 x[6,7] +16 x[7,7] +9 x[8,7] +32 x[9,7] +34 x[10,7] +1 x[11,7] +7 x[12,7] +22 x[13,7] +32 x[14,7] +25 x[15,7] +38 x[16,7] +9 x[17,7] +15 x[18,7] +17 x[19,7] +29 x[20,7] +3 x[21,7] +9 x[22,7] +33 x[23,7] +4 x[24,7] +15 x[25,7] +32 x[26,7] +24 x[27,7] +33 x[28,7] +14 x[29,7] -76 y[7]  <= 0
 auto_c_000000038: +9 x[0,8] +27 x[1,8] +7 x[2,8] +4 x[3,8] +11 x[4,8] +15 x[5,8] +16 x[6,8] +16 x[7,8] +9 x[8,8] +32 x[9,8] +34 x[10,8] +1 x[11,8] +7 x[12,8] +22 x[13,8] +32 x[14,8] +25 x[15,8] +38 x[16,8] +9 x[17,8] +15 x[18,8] +17 x[19,8] +29 x[20,8] +3 x[21,8] +9 x[22,8] +33 x[23,8] +4 x[24,8] +15 x[25,8] +32 x[26,8] +24 x[27,8] +33 x[28,8] +14 x[29,8] -182 y[8]  <= 0
 auto_c_000000039: +9 x[0,9] +27 x[1,9] +7 x[2,9] +4 x[3,9] +11 x[4,9] +15 x[5,9] +16 x[6,9] +16 x[7,9] +9 x[8,9] +32 x[9,9] +34 x[10,9] +1 x[11,9] +7 x[12,9] +22 x[13,9] +32 x[14,9] +25 x[15,9] +38 x[16,9] +9 x[17,9] +15 x[18,9] +17 x[19,9] +29 x[20,9] +3 x[21,9] +9 x[22,9] +33 x[23,9] +4 x[24,9] +15 x[25,9] +32 x[26,9] +24 x[27,9] +33 x[28,9] +14 x[29,9] -41 y[9]  <= 0
 auto_c_000000040: +9 x[0,10] +27 x[1,10] +7 x[2,10] +4 x[3,10] +11 x[4,10] +15 x[5,10] +16 x[6,10] +16 x[7,10] +9 x[8,10] +32 x[9,10] +34 x[10,10] +1 x[11,10] +7 x[12,10] +22 x[13,10] +32 x[14,10] +25 x[15,10] +38 x[16,10] +9 x[17,10] +15 x[18,10] +17 x[19,10] +29 x[20,10] +3 x[21,10] +9 x[22,10] +33 x[23,10] +4 x[24,10] +15 x[25,10] +32 x[26,10] +24 x[27,10] +33 x[28,10] +14 x[29,10] -128 y[10]  <= 0
 auto_c_000000041: +9 x[0,11] +27 x[1,11] +7 x[2,11] +4 x[3,11] +11 x[4,11] +15 x[5,11] +16 x[6,11] +16 x[7,11] +9 x[8,11] +32 x[9,11] +34 x[10,11] +1 x[11,11] +7 x[12,11] +22 x[13,11] +32 x[14,11] +25 x[15,11] +38 x[16,11] +9 x[17,11] +15 x[18,11] +17 x[19,11] +29 x[20,11] +3 x[21,11] +9 x[22,11] +33 x[23,11] +4 x[24,11] +15 x[25,11] +32 x[26,11] +24 x[27,11] +33 x[28,11] +14 x[29,11] -185 y[11]  <= 0
 auto_c_000000042: +9 x[0,12] +27 x[1,12] +7 x[2,12] +4 x[3,12] +11 x[4,12] +15 x[5,12] +16 x[6,12] +16 x[7,12] +9 x[8,12] +32 x[9,12] +34 x[10,12] +1 x[11,12] +7 x[12,12] +22 x[13,12] +32 x[14,12] +25 x[15,12] +38 x[16,12] +9 x[17,12] +15 x[18,12] +17 x[19,12] +29 x[20,12] +3 x[21,12] +9 x[22,12] +33 x[23,12] +4 x[24,12] +15 x[25,12] +32 x[26,12] +24 x[27,12] +33 x[28,12] +14 x[29,12] -161 y[12]  <= 0
 auto_c_000000043: +9 x[0,13] +27 x[1,13] +7 x[2,13] +4 x[3,13] +11 x[4,13] +15 x[5,13] +16 x[6,13] +16 x[7,13] +9 x[8,13] +32 x[9,13] +34 x[10,13] +1 x[11,13] +7 x[12,13] +22 x[13,13] +32 x[14,13] +25 x[15,13] +38 x[16,13] +9 x[17,13] +15 x[18,13] +17 x[19,13] +29 x[20,13] +3 x[21,13] +9 x[22,13] +33 x[23,13] +4 x[24,13] +15 x[25,13] +32 x[26,13] +24 x[27,13] +33 x[28,13] +14 x[29,13] -113 y[13]  <= 0
 auto_c_000000044: +9 x[0,14] +27 x[1,14] +7 x[2,14] +4 x[3,14] +11 x[4,14] +15 x[5,14] +16 x[6,14] +16 x[7,14] +9 x[8,14] +32 x[9,14] +34 x[10,14] +1 x[11,14] +7 x[12,14] +22 x[13,14] +32 x[14,14] +25 x[15,14] +38 x[16,14] +9 x[17,14] +15 x[18,14] +17 x[19,14] +29 x[20,14] +3 x[21,14] +9 x[22,14] +33 x[23,14] +4 x[24,14] +15 x[25,14] +32 x[26,14] +24 x[27,14] +33 x[28,14] +14 x[29,14] -150 y[14]  <= 0
Bounds
 0 <= x[0,0] <= 1
 0 <= x[1,0] <= 1
 0 <= x[2,0] <= 1
 0 <= x[3,0] <= 1
 0 <= x[4,0] <= 1
 0 <= x[5,0] <= 1
 0 <= x[6,0] <= 1
 0 <= x[7,0] <= 1
 0 <= x[8,0] <= 1
 0 <= x[9,0] <= 1
 0 <= x[10,0] <= 1
 0 <= x[11,0] <= 1
 0 <= x[12,0] <= 1
 0 <= x[13,0] <= 1
 0 <= x[14,0] <= 1
 0 <= x[15,0] <= 1
 0 <= x[16,0] <= 1
 0 <= x[17,0] <= 1
 0 <= x[18,0] <= 1
 0 <= x[19,0] <= 1
 0 <= x[20,0] <= 1
 0 <= x[21,0] <= 1
 0 <= x[22,0] <= 1
 0 <= x[23,0] <= 1
 0 <= x[24,0] <= 1
 0 <= x[25,0] <= 1
 0 <= x[26,0] <= 1
 0 <= x[27,0] <= 1
 0 <= x[28,0] <= 1
 0 <= x[29,0] <= 1
 0 <= x[0,1] <= 1
 0 <= x[1,1] <= 1
 0 <= x[2,1] <= 1
 0 <= x[3,1] <= 1
 0 <= x[4,1] <= 1
 0 <= x[5,1] <= 1
 0 <= x[6,1] <= 1
 0 <= x[7,1] <= 1
 0 <= x[8,1] <= 1
 0 <= x[9,1] <= 1
 0 <= x[10,1] <= 1
 0 <= x[11,1] <= 1
 0 <= x[12,1] <= 1
 0 <= x[13,1] <= 1
 0 <= x[14,1] <= 1
 0 <= x[15,1] <= 1
 0 <= x[16,1] <= 1
 0 <= x[17,1] <= 1
 0 <= x[18,1] <= 1
 0 <= x[19,1] <= 1
 0 <= x[20,1] <= 1
 0 <= x[21,1] <= 1
 0 <= x[22,1] <= 1
 0 <= x[23,1] <= 1
 0 <= x[24,1] <= 1
 0 <= x[25,1] <= 1
 0 <= x[26,1] <= 1
 0 <= x[27,1] <= 1
 0 <= x[28,1] <= 1
 0 <= x[29,1] <= 1
 0 <= x[0,2] <= 1
 0 <= x[1,2] <= 1
 0 <= x[2,2] <= 1
 0 <= x[3,2] <= 1
 0 <= x[4,2] <= 1
 0 <= x[5,2] <= 1
 0 <= x[6,2] <= 1
 0 <= x[7,2] <= 1
 0 <= x[8,2] <= 1
 0 <= x[9,2] <= 1
 0 <= x[10,2] <= 1
 0 <= x[11,2] <= 1
 0 <= x[12,2] <= 1
 0 <= x[13,2] <= 1
 0 <= x[14,2] <= 1
 0 <= x[15,2] <= 1
 0 <= x[16,2] <= 1
 0 <= x[17,2] <= 1
 0 <= x[18,2] <= 1
 0 <= x[19,2] <= 1
 0 <= x[20,2] <= 1
 0 <= x[21,2] <= 1
 0 <= x[22,2] <= 1
 0 <= x[23,2] <= 1
 0 <= x[24,2] <= 1
 0 <= x[25,2] <= 1
 0 <= x[26,2] <= 1
 0 <= x[27,2] <= 1
 0 <= x[28,2] <= 1
 0 <= x[29,2] <= 1
 0 <= x[0,3] <= 1
 0 <= x[1,3] <= 1
 0 <= x[2,3] <= 1
 0 <= x[3,3] <= 1
 0 <= x[4,3] <= 1
 0 <= x[5,3] <= 1
 0 <= x[6,3] <= 1
 0 <= x[7,3] <= 1
 0 <= x[8,3] <= 1
 0 <= x[9,3] <= 1
 0 <= x[10,3] <= 1
 0 <= x[11,3] <= 1
 0 <= x[12,3] <= 1
 0 <= x[13,3] <= 1
 0 <= x[14,3] <= 1
 0 <= x[15,3] <= 1
 0 <= x[16,3] <= 1
 0 <= x[17,3] <= 1
 0 <= x[18,3] <= 1
 0 <= x[19,3] <= 1
 0 <= x[20,3] <= 1
 0 <= x[21,3] <= 1
 0 <= x[22,3] <= 1
 0 <= x[23,3] <= 1
 0 <= x[24,3] <= 1
 0 <= x[25,3] <= 1
 0 <= x[26,3] <= 1
 0 <= x[27,3] <= 1
 0 <= x[28,3] <= 1
 0 <= x[29,3] <= 1
 0 <= x[0,4] <= 1
 0 <= x[1,4] <= 1
 0 <= x[2,4] <= 1
 0 <= x[3,4] <= 1
 0 <= x[4,4] <= 1
 0 <= x[5,4] <= 1
 0 <= x[6,4] <= 1
 0 <= x[7,4] <= 1
 0 <= x[8,4] <= 1
 0 <= x[9,4] <= 1
 0 <= x[10,4] <= 1
 0 <= x[11,4] <= 1
 0 <= x[12,4] <= 1
 0 <= x[13,4] <= 1
 0 <= x[14,4] <= 1
 0 <= x[15,4] <= 1
 0 <= x[16,4] <= 1
 0 <= x[17,4] <= 1
 0 <= x[18,4] <= 1
 0 <= x[19,4] <= 1
 0 <= x[20,4] <= 1
 0 <= x[21,4] <= 1
 0 <= x[22,4] <= 1
 0 <= x[23,4] <= 1
 0 <= x[24,4] <= 1
 0 <= x[25,4] <= 1
 0 <= x[26,4] <= 1
 0 <= x[27,4] <= 1
 0 <= x[28,4] <= 1
 0 <= x[29,4] <= 1
 0 <= x[0,5] <= 1
 0 <= x[1,5] <= 1
 0 <= x[2,5] <= 1
 0 <= x[3,5] <= 1
 0 <= x[4,5] <= 1
 0 <= x[5,5] <= 1
 0 <= x[6,5] <= 1
 0 <= x[7,5] <= 1
 0 <= x[8,5] <= 1
 0 <= x[9,5] <= 1
 0 <= x[10,5] <= 1
 0 <= x[11,5] <= 1
 0 <= x[12,5] <= 1
 0 <= x[13,5] <= 1
 0 <= x[14,5] <= 1
 0 <= x[15,5] <= 1
 0 <= x[16,5] <= 1
 0 <= x[17,5] <= 1
 0 <= x[18,5] <= 1
 0 <= x[19,5] <= 1
 0 <= x[20,5] <= 1
 0 <= x[21,5] <= 1
 0 <= x[22,5] <= 1
 0 <= x[23,5] <= 1
 0 <= x[24,5] <= 1
 0 <= x[25,5] <= 1
 0 <= x[26,5] <= 1
 0 <= x[27,5] <= 1
 0 <= x[28,5] <= 1
 0 <= x[29,5] <= 1
 0 <= x[0,6] <= 1
 0 <= x[1,6] <= 1
 0 <= x[2,6] <= 1
 0 <= x[3,6] <= 1
 0 <= x[4,6] <= 1
 0 <= x[5,6] <= 1
 0 <= x[6,6] <= 1
 0 <= x[7,6] <= 1
 0 <= x[8,6] <= 1
 0 <= x[9,6] <= 1
 0 <= x[10,6] <= 1
 0 <= x[11,6] <= 1
 0 <= x[12,6] <= 1
 0 <= x[13,6] <= 1
 0 <= x[14,6] <= 1
 0 <= x[15,6] <= 1
 0 <= x[16,6] <= 1
 0 <= x[17,6] <= 1
 0 <= x[18,6] <= 1
 0 <= x[19,6] <= 1
 0 <= x[20,6] <= 1
 0 <= x[21,6] <= 1
 0 <= x[22,6] <= 1
 0 <= x[23,6] <= 1
 0 <= x[24,6] <= 1
 0 <= x[25,6] <= 1
 0 <= x[26,6] <= 1
 0 <= x[27,6] <= 1
 0 <= x[28,6] <= 1
 0 <= x[29,6] <= 1
 0 <= x[0,7] <= 1
 0 <= x[1,7] <= 1
 0 <= x[2,7] <= 1
 0 <= x[3,7] <= 1
 0 <= x[4,7] <= 1
 0 <= x[5,7] <= 1
 0 <= x[6,7] <= 1
 0 <= x[7,7] <= 1
 0 <= x[8,7] <= 1
 0 <= x[9,7] <= 1
 0 <= x[10,7] <= 1
 0 <= x[11,7] <= 1
 0 <= x[12,7] <= 1
 0 <= x[13,7] <= 1
 0 <= x[14,7] <= 1
 0 <= x[15,7] <= 1
 0 <= x[16,7] <= 1
 0 <= x[17,7] <= 1
 0 <= x[18,7] <= 1
 0 <= x[19,7] <= 1
 0 <= x[20,7] <= 1
 0 <= x[21,7] <= 1
 0 <= x[22,7] <= 1
 0 <= x[23,7] <= 1
 0 <= x[24,7] <= 1
 0 <= x[25,7] <= 1
 0 <= x[26,7] <= 1
 0 <= x[27,7] <= 1
 0 <= x[28,7] <= 1
 0 <= x[29,7] <= 1
 0 <= x[0,8] <= 1
 0 <= x[1,8] <= 1
 0 <= x[2,8] <= 1
 0 <= x[3,8] <= 1
 0 <= x[4,8] <= 1
 0 <= x[5,8] <= 1
 0 <= x[6,8] <= 1
 0 <= x[7,8] <= 1
 0 <= x[8,8] <= 1
 0 <= x[9,8] <= 1
 0 <= x[10,8] <= 1
 0 <= x[11,8] <= 1
 0 <= x[12,8] <= 1
 0 <= x[13,8] <= 1
 0 <= x[14,8] <= 1
 0 <= x[15,8] <= 1
 0 <= x[16,8] <= 1
 0 <= x[17,8] <= 1
 0 <= x[18,8] <= 1
 0 <= x[19,8] <= 1
 0 <= x[20,8] <= 1
 0 <= x[21,8] <= 1
 0 <= x[22,8] <= 1
 0 <= x[23,8] <= 1
 0 <= x[24,8] <= 1
 0 <= x[25,8] <= 1
 0 <= x[26,8] <= 1
 0 <= x[27,8] <= 1
 0 <= x[28,8] <= 1
 0 <= x[29,8] <= 1
 0 <= x[0,9] <= 1
 0 <= x[1,9] <= 1
 0 <= x[2,9] <= 1
 0 <= x[3,9] <= 1
 0 <= x[4,9] <= 1
 0 <= x[5,9] <= 1
 0 <= x[6,9] <= 1
 0 <= x[7,9] <= 1
 0 <= x[8,9] <= 1
 0 <= x[9,9] <= 1
 0 <= x[10,9] <= 1
 0 <= x[11,9] <= 1
 0 <= x[12,9] <= 1
 0 <= x[13,9] <= 1
 0 <= x[14,9] <= 1
 0 <= x[15,9] <= 1
 0 <= x[16,9] <= 1
 0 <= x[17,9] <= 1
 0 <= x[18,9] <= 1
 0 <= x[19,9] <= 1
 0 <= x[20,9] <= 1
 0 <= x[21,9] <= 1
 0 <= x[22,9] <= 1
 0 <= x[23,9] <= 1
 0 <= x[24,9] <= 1
 0 <= x[25,9] <= 1
 0 <= x[26,9] <= 1
 0 <= x[27,9] <= 1
 0 <= x[28,9] <= 1
 0 <= x[29,9] <= 1
 0 <= x[0,10] <= 1
 0 <= x[1,10] <= 1
 0 <= x[2,10] <= 1
 0 <= x[3,10] <= 1
 0 <= x[4,10] <= 1
 0 <= x[5,10] <= 1
 0 <= x[6,10] <= 1
 0 <= x[7,10] <= 1
 0 <= x[8,10] <= 1
 0 <= x[9,10] <= 1
 0 <= x[10,10] <= 1
 0 <= x[11,10] <= 1
 0 <= x[12,10] <= 1
 0 <= x[13,10] <= 1
 0 <= x[14,10] <= 1
 0 <= x[15,10] <= 1
 0 <= x[16,10] <= 1
 0 <= x[17,10] <= 1
 0 <= x[18,10] <= 1
 0 <= x[19,10] <= 1
 0 <= x[20,10] <= 1
 0 <= x[21,10] <= 1
 0 <= x[22,10] <= 1
 0 <= x[23,10] <= 1
 0 <= x[24,10] <= 1
 0 <= x[25,10] <= 1
 0 <= x[26,10] <= 1
 0 <= x[27,10] <= 1
 0 <= x[28,10] <= 1
 0 <= x[29,10] <= 1
 0 <= x[0,11] <= 1
 0 <= x[1,11] <= 1
 0 <= x[2,11] <= 1
 0 <= x[3,11] <= 1
 0 <= x[4,11] <= 1
 0 <= x[5,11] <= 1
 0 <= x[6,11] <= 1
 0 <= x[7,11] <= 1
 0 <= x[8,11] <= 1
 0 <= x[9,11] <= 1
 0 <= x[10,11] <= 1
 0 <= x[11,11] <= 1
 0 <= x[12,11] <= 1
 0 <= x[13,11] <= 1
 0 <= x[14,11] <= 1
 0 <= x[15,11] <= 1
 0 <= x[16,11] <= 1
 0 <= x[17,11] <= 1
 0 <= x[18,11] <= 1
 0 <= x[19,11] <= 1
 0 <= x[20,11] <= 1
 0 <= x[21,11] <= 1
 0 <= x[22,11] <= 1
 0 <= x[23,11] <= 1
 0 <= x[24,11] <= 1
 0 <= x[25,11] <= 1
 0 <= x[26,11] <= 1
 0 <= x[27,11] <= 1
 0 <= x[28,11] <= 1
 0 <= x[29,11] <= 1
 0 <= x[0,12] <= 1
 0 <= x[1,12] <= 1
 0 <= x[2,12] <= 1
 0 <= x[3,12] <= 1
 0 <= x[4,12] <= 1
 0 <= x[5,12] <= 1
 0 <= x[6,12] <= 1
 0 <= x[7,12] <= 1
 0 <= x[8,12] <= 1
 0 <= x[9,12] <= 1
 0 <= x[10,12] <= 1
 0 <= x[11,12] <= 1
 0 <= x[12,12] <= 1
 0 <= x[13,12] <= 1
 0 <= x[14,12] <= 1
 0 <= x[15,12] <= 1
 0 <= x[16,12] <= 1
 0 <= x[17,12] <= 1
 0 <= x[18,12] <= 1
 0 <= x[19,12] <= 1
 0 <= x[20,12] <= 1
 0 <= x[21,12] <= 1
 0 <= x[22,12] <= 1
 0 <= x[23,12] <= 1
 0 <= x[24,12] <= 1
 0 <= x[25,12] <= 1
 0 <= x[26,12] <= 1
 0 <= x[27,12] <= 1
 0 <= x[28,12] <= 1
 0 <= x[29,12] <= 1
 0 <= x[0,13] <= 1
 0 <= x[1,13] <= 1
 0 <= x[2,13] <= 1
 0 <= x[3,13] <= 1
 0 <= x[4,13] <= 1
 0 <= x[5,13] <= 1
 0 <= x[6,13] <= 1
 0 <= x[7,13] <= 1
 0 <= x[8,13] <= 1
 0 <= x[9,13] <= 1
 0 <= x[10,13] <= 1
 0 <= x[11,13] <= 1
 0 <= x[12,13] <= 1
 0 <= x[13,13] <= 1
 0 <= x[14,13] <= 1
 0 <= x[15,13] <= 1
 0 <= x[16,13] <= 1
 0 <= x[17,13] <= 1
 0 <= x[18,13] <= 1
 0 <= x[19,13] <= 1
 0 <= x[20,13] <= 1
 0 <= x[21,13] <= 1
 0 <= x[22,13] <= 1
 0 <= x[23,13] <= 1
 0 <= x[24,13] <= 1
 0 <= x[25,13] <= 1
 0 <= x[26,13] <= 1
 0 <= x[27,13] <= 1
 0 <= x[28,13] <= 1
 0 <= x[29,13] <= 1
 0 <= x[0,14] <= 1
 0 <= x[1,14] <= 1
 0 <= x[2,14] <= 1
 0 <= x[3,14] <= 1
 0 <= x[4,14] <= 1
 0 <= x[5,14] <= 1
 0 <= x[6,14] <= 1
 0 <= x[7,14] <= 1
 0 <= x[8,14] <= 1
 0 <= x[9,14] <= 1
 0 <= x[10,14] <= 1
 0 <= x[11,14] <= 1
 0 <= x[12,14] <= 1
 0 <= x[13,14] <= 1
 0 <= x[14,14] <= 1
 0 <= x[15,14] <= 1
 0 <= x[16,14] <= 1
 0 <= x[17,14] <= 1
 0 <= x[18,14] <= 1
 0 <= x[19,14] <= 1
 0 <= x[20,14] <= 1
 0 <= x[21,14] <= 1
 0 <= x[22,14] <= 1
 0 <= x[23,14] <= 1
 0 <= x[24,14] <= 1
 0 <= x[25,14] <= 1
 0 <= x[26,14] <= 1
 0 <= x[27,14] <= 1
 0 <= x[28,14] <= 1
 0 <= x[29,14] <= 1
 0 <= y[0] <= 1
 0 <= y[1] <= 1
 0 <= y[2] <= 1
 0 <= y[3] <= 1
 0 <= y[4] <= 1
 0 <= y[5] <= 1
 0 <= y[6] <= 1
 0 <= y[7] <= 1
 0 <= y[8] <= 1
 0 <= y[9] <= 1
 0 <= y[10] <= 1
 0 <= y[11] <= 1
 0 <= y[12] <= 1
 0 <= y[13] <= 1
 0 <= y[14] <= 1
Binaries
 x[0,0]
 x[1,0]
 x[2,0]
 x[3,0]
 x[4,0]
 x[5,0]
 x[6,0]
 x[7,0]
 x[8,0]
 x[9,0]
 x[10,0]
 x[11,0]
 x[12,0]
 x[13,0]
 x[14,0]
 x[15,0]
 x[16,0]
 x[17,0]
 x[18,0]
 x[19,0]
 x[20,0]
 x[21,0]
 x[22,0]
 x[23,0]
 x[24,0]
 x[25,0]
 x[26,0]
 x[27,0]
 x[28,0]
 x[29,0]
 x[0,1]
 x[1,1]
 x[2,1]
 x[3,1]
 x[4,1]
 x[5,1]
 x[6,1]
 x[7,1]
 x[8,1]
 x[9,1]
 x[10,1]
 x[11,1]
 x[12,1]
 x[13,1]
 x[14,1]
 x[15,1]
 x[16,1]
 x[17,1]
 x[18,1]
 x[19,1]
 x[20,1]
 x[21,1]
 x[22,1]
 x[23,1]
 x[24,1]
 x[25,1]
 x[26,1]
 x[27,1]
 x[28,1]
 x[29,1]
 x[0,2]
 x[1,2]
 x[2,2]
 x[3,2]
 x[4,2]
 x[5,2]
 x[6,2]
 x[7,2]
 x[8,2]
 x[9,2]
 x[10,2]
 x[11,2]
 x[12,2]
 x[13,2]
 x[14,2]
 x[15,2]
 x[16,2]
 x[17,2]
 x[18,2]
 x[19,2]
 x[20,2]
 x[21,2]
 x[22,2]
 x[23,2]
 x[24,2]
 x[25,2]
 x[26,2]
 x[27,2]
 x[28,2]
 x[29,2]
 x[0,3]
 x[1,3]
 x[2,3]
 x[3,3]
 x[4,3]
 x[5,3]
 x[6,3]
 x[7,3]
 x[8,3]
 x[9,3]
 x[10,3]
 x[11,3]
 x[12,3]
 x[13,3]
 x[14,3]
 x[15,3]
 x[16,3]
 x[17,3]
 x[18,3]
 x[19,3]
 x[20,3]
 x[21,3]
 x[22,3]
 x[23,3]
 x[24,3]
 x[25,3]
 x[26,3]
 x[27,3]
 x[28,3]
 x[29,3]
 x[0,4]
 x[1,4]
 x[2,4]
 x[3,4]
 x[4,4]
 x[5,4]
 x[6,4]
 x[7,4]
 x[8,4]
 x[9,4]
 x[10,4]
 x[11,4]
 x[12,4]
 x[13,4]
 x[14,4]
 x[15,4]
 x[16,4]
 x[17,4]
 x[18,4]
 x[19,4]
 x[20,4]
 x[21,4]
 x[22,4]
 x[23,4]
 x[24,4]
 x[25,4]
 x[26,4]
 x[27,4]
 x[28,4]
 x[29,4]
 x[0,5]
 x[1,5]
 x[2,5]
 x[3,5]
 x[4,5]
 x[5,5]
 x[6,5]
 x[7,5]
 x[8,5]
 x[9,5]
 x[10,5]
 x[11,5]
 x[12,5]
 x[13,5]
 x[14,5]
 x[15,5]
 x[16,5]
 x[17,5]
 x[18,5]
 x[19,5]
 x[20,5]
 x[21,5]
 x[22,5]
 x[23,5]
 x[24,5]
 x[25,5]
 x[26,5]
 x[27,5]
 x[28,5]
 x[29,5]
 x[0,6]
 x[1,6]
 x[2,6]
 x[3,6]
 x[4,6]
 x[5,6]
 x[6,6]
 x[7,6]
 x[8,6]
 x[9,6]
 x[10,6]
 x[11,6]
 x[12,6]
 x[13,6]
 x[14,6]
 x[15,6]
 x[16,6]
 x[17,6]
 x[18,6]
 x[19,6]
 x[20,6]
 x[21,6]
 x[22,6]
 x[23,6]
 x[24,6]
 x[25,6]
 x[26,6]
 x[27,6]
 x[28,6]
 x[29,6]
 x[0,7]
 x[1,7]
 x[2,7]
 x[3,7]
 x[4,7]
 x[5,7]
 x[6,7]
 x[7,7]
 x[8,7]
 x[9,7]
 x[10,7]
 x[11,7]
 x[12,7]
 x[13,7]
 x[14,7]
 x[15,7]
 x[16,7]
 x[17,7]
 x[18,7]
 x[19,7]
 x[20,7]
 x[21,7]
 x[22,7]
 x[23,7]
 x[24,7]
 x[25,7]
 x[26,7]
 x[27,7]
 x[28,7]
 x[29,7]
 x[0,8]
 x[1,8]
 x[2,8]
 x[3,8]
 x[4,8]
 x[5,8]
 x[6,8]
 x[7,8]
 x[8,8]
 x[9,8]
 x[10,8]
 x[11,8]
 x[12,8]
 x[13,8]
 x[14,8]
 x[15,8]
 x[16,8]
 x[17,8]
 x[18,8]
 x[19,8]
 x[20,8]
 x[21,8]
 x[22,8]
 x[23,8]
 x[24,8]
 x[25,8]
 x[26,8]
 x[27,8]
 x[28,8]
 x[29,8]
 x[0,9]
 x[1,9]
 x[2,9]
 x[3,9]
 x[4,9]
 x[5,9]
 x[6,9]
 x[7,9]
 x[8,9]
 x[9,9]
 x[10,9]
 x[11,9]
 x[12,9]
 x[13,9]
 x[14,9]
 x[15,9]
 x[16,9]
 x[17,9]
 x[18,9]
 x[19,9]
 x[20,9]
 x[21,9]
 x[22,9]
 x[23,9]
 x[24,9]
 x[25,9]
 x[26,9]
 x[27,9]
 x[28,9]
 x[29,9]
 x[0,10]
 x[1,10]
 x[2,10]
 x[3,10]
 x[4,10]
 x[5,10]
 x[6,10]
 x[7,10]
 x[8,10]
 x[9,10]
 x[10,10]
 x[11,10]
 x[12,10]
 x[13,10]
 x[14,10]
 x[15,10]
 x[16,10]
 x[17,10]
 x[18,10]
 x[19,10]
 x[20,10]
 x[21,10]
 x[22,10]
 x[23,10]
 x[24,10]
 x[25,10]
 x[26,10]
 x[27,10]
 x[28,10]
 x[29,10]
 x[0,11]
 x[1,11]
 x[2,11]
 x[3,11]
 x[4,11]
 x[5,11]
 x[6,11]
 x[7,11]
 x[8,11]
 x[9,11]
 x[10,11]
 x[11,11]
 x[12,11]
 x[13,11]
 x[14,11]
 x[15,11]
 x[16,11]
 x[17,11]
 x[18,11]
 x[19,11]
 x[20,11]
 x[21,11]
 x[22,11]
 x[23,11]
 x[24,11]
 x[25,11]
 x[26,11]
 x[27,11]
 x[28,11]
 x[29,11]
 x[0,12]
 x[1,12]
 x[2,12]
 x[3,12]
 x[4,12]
 x[5,12]
 x[6,12]
 x[7,12]
 x[8,12]
 x[9,12]
 x[10,12]
 x[11,12]
 x[12,12]
 x[13,12]
 x[14,12]
 x[15,12]
 x[16,12]
 x[17,12]
 x[18,12]
 x[19,12]
 x[20,12]
 x[21,12]
 x[22,12]
 x[23,12]
 x[24,12]
 x[25,12]
 x[26,12]
 x[27,12]
 x[28,12]
 x[29,12]
 x[0,13]
 x[1,13]
 x[2,13]
 x[3,13]
 x[4,13]
 x[5,13]
 x[6,13]
 x[7,13]
 x[8,13]
 x[9,13]
 x[10,13]
 x[11,13]
 x[12,13]
 x[13,13]
 x[14,13]
 x[15,13]
 x[16,13]
 x[17,13]
 x[18,13]
 x[19,13]
 x[20,13]
 x[21,13]
 x[22,13]
 x[23,13]
 x[24,13]
 x[25,13]
 x[26,13]
 x[27,13]
 x[28,13]
 x[29,13]
 x[0,14]
 x[1,14]
 x[2,14]
 x[3,14]
 x[4,14]
 x[5,14]
 x[6,14]
 x[7,14]
 x[8,14]
 x[9,14]
 x[10,14]
 x[11,14]
 x[12,14]
 x[13,14]
 x[14,14]
 x[15,14]
 x[16,14]
 x[17,14]
 x[18,14]
 x[19,14]
 x[20,14]
 x[21,14]
 x[22,14]
 x[23,14]
 x[24,14]
 x[25,14]
 x[26,14]
 x[27,14]
 x[28,14]
 x[29,14]
 y[0]
 y[1]
 y[2]
 y[3]
 y[4]
 y[5]
 y[6]
 y[7]
 y[8]
 y[9]
 y[10]
 y[11]
 y[12]
 y[13]
 y[14]
End
